* ENCODING=ISO-8859-1
NAME          CPLEX
ROWS
 N  obj1    
 G  c1      
 G  c2      
 G  c3      
 G  c4      
 G  c5      
 G  c6      
 G  c7      
 G  c8      
 G  c9      
 G  c10     
 G  c11     
 G  c12     
 G  c13     
 G  c14     
 G  c15     
 G  c16     
 G  c17     
 G  c18     
 G  c19     
 G  c20     
 G  c21     
 G  c22     
 G  c23     
 G  c24     
 G  c25     
 G  c26     
 G  c27     
 G  c28     
 G  c29     
 G  c30     
 G  c31     
 G  c32     
 G  c33     
 G  c34     
 G  c35     
COLUMNS
    MARK0000  'MARKER'                 'INTORG'
    x1        obj1                            1
    x1        c10                           325
    x1        c27                           869
    x2        obj1                            1
    x2        c7                            282
    x2        c33                           818
    x3        obj1                            1
    x3        c4                            329
    x3        c10                           717
    x3        c23                           283
    x4        obj1                            1
    x4        c10                           610
    x4        c11                           302
    x4        c14                           613
    x4        c28                           962
    x5        obj1                            1
    x5        c1                            413
    x5        c3                            456
    x5        c11                           591
    x5        c19                           666
    x5        c20                           766
    x5        c33                           270
    x6        obj1                            1
    x6        c20                           274
    x7        obj1                            1
    x7        c2                            154
    x7        c6                            906
    x7        c14                           465
    x7        c23                           123
    x7        c27                           151
    x8        obj1                            1
    x8        c24                           330
    x9        obj1                            1
    x9        c10                           856
    x9        c28                           321
    x10       obj1                            1
    x10       c1                            363
    x10       c4                            651
    x10       c13                           554
    x10       c26                           352
    x10       c29                           693
    x11       obj1                            1
    x11       c3                            745
    x11       c8                            159
    x11       c28                           283
    x11       c32                           995
    x12       obj1                            1
    x12       c2                            872
    x12       c14                           509
    x12       c15                           268
    x12       c30                           487
    x13       obj1                            1
    x13       c3                            620
    x13       c9                            422
    x13       c18                           655
    x14       obj1                            1
    x14       c19                           147
    x14       c20                           713
    x14       c23                           929
    x15       obj1                            1
    x15       c26                           952
    x16       obj1                            1
    x17       obj1                            1
    x17       c2                            833
    x17       c3                            835
    x18       obj1                            1
    x18       c4                            649
    x18       c8                            244
    x18       c18                           459
    x18       c23                           132
    x18       c24                           571
    x18       c29                           762
    x18       c33                           965
    x19       obj1                            1
    x19       c31                           944
    x20       obj1                            1
    x20       c7                            315
    x20       c8                            501
    x20       c23                           672
    x21       obj1                            1
    x21       c15                           570
    x21       c17                           756
    x21       c19                           114
    x21       c25                           871
    x21       c32                           202
    x22       obj1                            1
    x22       c4                            208
    x22       c25                           285
    x23       obj1                            1
    x23       c14                           524
    x23       c19                           926
    x23       c24                           877
    x24       obj1                            1
    x24       c5                            622
    x24       c10                           142
    x24       c15                           818
    x24       c30                           320
    x24       c33                           455
    x25       obj1                            1
    x25       c16                           269
    x25       c22                           643
    x26       obj1                            1
    x26       c9                            653
    x26       c11                           885
    x26       c12                           583
    x26       c16                           948
    x26       c19                           636
    x26       c24                           686
    x26       c27                           226
    x26       c34                           928
    x27       obj1                            1
    x27       c2                            158
    x27       c3                            534
    x27       c9                            296
    x28       obj1                            1
    x28       c1                            241
    x28       c19                           918
    x28       c24                           905
    x28       c25                           906
    x28       c26                           186
    x29       obj1                            1
    x29       c16                           665
    x29       c20                           236
    x30       obj1                            1
    x30       c3                            764
    x30       c8                            547
    x30       c11                           990
    x30       c14                           394
    x30       c20                           144
    x30       c21                           257
    x31       obj1                            1
    x31       c4                            845
    x31       c12                           812
    x31       c26                           303
    x32       obj1                            1
    x32       c13                           380
    x32       c24                           219
    x33       obj1                            1
    x33       c8                            816
    x33       c9                            136
    x33       c10                           327
    x33       c11                           439
    x33       c13                           510
    x33       c31                           216
    x34       obj1                            1
    x34       c3                            891
    x34       c7                            507
    x34       c18                           616
    x35       obj1                            1
    x35       c6                            605
    x35       c12                           725
    x35       c14                           293
    x35       c18                           615
    x35       c19                           384
    x36       obj1                            1
    x36       c12                           944
    x36       c15                           801
    x36       c18                           854
    x36       c22                           745
    x36       c32                           569
    x37       obj1                            1
    x37       c3                            918
    x37       c23                           352
    x37       c29                           522
    x37       c35                           641
    x38       obj1                            1
    x38       c2                            784
    x38       c4                            121
    x38       c11                           526
    x38       c35                           671
    x39       obj1                            1
    x39       c2                            202
    x39       c5                            824
    x39       c11                           810
    x39       c16                           760
    x39       c31                           651
    x39       c32                           359
    x40       obj1                            1
    x40       c1                            397
    x40       c7                            835
    x40       c9                            170
    x40       c25                           392
    x40       c29                           989
    x40       c35                           413
    x41       obj1                            1
    x41       c6                            219
    x41       c13                           571
    x42       obj1                            1
    x42       c2                            748
    x42       c5                            558
    x42       c12                           616
    x42       c17                           846
    x42       c21                           477
    x42       c31                           112
    x42       c33                           249
    x43       obj1                            1
    x43       c5                            679
    x44       obj1                            1
    x44       c2                            669
    x44       c10                           153
    x44       c25                           969
    x45       obj1                            1
    x45       c17                           157
    x45       c19                           497
    x45       c21                           201
    x45       c23                           438
    x45       c26                           768
    x46       obj1                            1
    x46       c1                            425
    x46       c17                           762
    x46       c18                           872
    x46       c21                           331
    x46       c28                           577
    x46       c34                           226
    x47       obj1                            1
    x47       c8                            268
    x47       c13                           187
    x47       c30                           329
    x47       c31                           325
    x47       c35                           629
    x48       obj1                            1
    x48       c4                            882
    x48       c11                           487
    x48       c20                           216
    x48       c28                           222
    x48       c30                           738
    x48       c34                           502
    x49       obj1                            1
    x49       c4                            393
    x49       c12                           548
    x49       c29                           187
    x50       obj1                            1
    x50       c14                           486
    x50       c17                           606
    x50       c20                           665
    x50       c25                           803
    x50       c27                           174
    x50       c34                           727
    x51       obj1                            1
    x51       c26                           957
    x51       c34                           471
    x52       obj1                            1
    x52       c2                            623
    x52       c24                           140
    x52       c26                           544
    x53       obj1                            1
    x53       c17                           713
    x53       c28                           247
    x53       c32                           726
    x54       obj1                            1
    x54       c14                           733
    x54       c16                           210
    x54       c27                           104
    x55       obj1                            1
    x55       c21                           524
    x55       c29                           938
    x56       obj1                            1
    x56       c4                            309
    x56       c9                            197
    x56       c24                           575
    x56       c26                           798
    x57       obj1                            1
    x57       c13                           605
    x57       c17                           742
    x57       c23                           734
    x57       c32                           452
    x58       obj1                            1
    x58       c1                            654
    x58       c6                            420
    x58       c9                            759
    x58       c13                           864
    x59       obj1                            1
    x59       c19                           930
    x59       c29                           725
    x60       obj1                            1
    x60       c8                            677
    x60       c16                           165
    x60       c22                           231
    x60       c33                           270
    x61       obj1                            1
    x61       c10                           604
    x61       c11                           854
    x61       c17                           483
    x61       c20                           582
    x61       c25                           136
    x61       c31                           111
    x62       obj1                            1
    x62       c6                            117
    x62       c9                            366
    x62       c22                           350
    x63       obj1                            1
    x63       c11                           942
    x63       c29                           982
    x64       obj1                            1
    x64       c10                           605
    x64       c12                           949
    x64       c13                           539
    x64       c24                           771
    x64       c25                           901
    x64       c28                           880
    x64       c31                           380
    x65       obj1                            1
    x66       obj1                            1
    x66       c2                            642
    x66       c8                            390
    x66       c22                           828
    x67       obj1                            1
    x67       c3                            548
    x67       c31                           817
    x68       obj1                            1
    x68       c15                           416
    x69       obj1                            1
    x69       c1                            244
    x69       c14                           550
    x69       c17                           331
    x69       c19                           568
    x69       c20                           160
    x70       obj1                            1
    x70       c1                            304
    x70       c10                           325
    x70       c13                           954
    x70       c18                           971
    x70       c22                           378
    MARK0001  'MARKER'                 'INTEND'
RHS
    rhs       c1                           1521
    rhs       c2                           2843
    rhs       c3                           3156
    rhs       c4                           2194
    rhs       c5                           1342
    rhs       c6                           1134
    rhs       c7                            970
    rhs       c8                           1801
    rhs       c9                           1500
    rhs       c10                          2332
    rhs       c11                          3413
    rhs       c12                          2589
    rhs       c13                          2582
    rhs       c14                          2284
    rhs       c15                          1437
    rhs       c16                          1509
    rhs       c17                          2698
    rhs       c18                          2521
    rhs       c19                          2893
    rhs       c20                          1878
    rhs       c21                           895
    rhs       c22                          1588
    rhs       c23                          1832
    rhs       c24                          2537
    rhs       c25                          2632
    rhs       c26                          2430
    rhs       c27                           762
    rhs       c28                          1746
    rhs       c29                          2899
    rhs       c30                           937
    rhs       c31                          1778
    rhs       c32                          1652
    rhs       c33                          1514
    rhs       c34                          1427
    rhs       c35                          1177
BOUNDS
 LI bnd       x1        0
 LI bnd       x2        0
 LI bnd       x3        0
 LI bnd       x4        0
 LI bnd       x5        0
 LI bnd       x6        0
 LI bnd       x7        0
 LI bnd       x8        0
 LI bnd       x9        0
 LI bnd       x10       0
 LI bnd       x11       0
 LI bnd       x12       0
 LI bnd       x13       0
 LI bnd       x14       0
 LI bnd       x15       0
 LI bnd       x16       0
 LI bnd       x17       0
 LI bnd       x18       0
 LI bnd       x19       0
 LI bnd       x20       0
 LI bnd       x21       0
 LI bnd       x22       0
 LI bnd       x23       0
 LI bnd       x24       0
 LI bnd       x25       0
 LI bnd       x26       0
 LI bnd       x27       0
 LI bnd       x28       0
 LI bnd       x29       0
 LI bnd       x30       0
 LI bnd       x31       0
 LI bnd       x32       0
 LI bnd       x33       0
 LI bnd       x34       0
 LI bnd       x35       0
 LI bnd       x36       0
 LI bnd       x37       0
 LI bnd       x38       0
 LI bnd       x39       0
 LI bnd       x40       0
 LI bnd       x41       0
 LI bnd       x42       0
 LI bnd       x43       0
 LI bnd       x44       0
 LI bnd       x45       0
 LI bnd       x46       0
 LI bnd       x47       0
 LI bnd       x48       0
 LI bnd       x49       0
 LI bnd       x50       0
 LI bnd       x51       0
 LI bnd       x52       0
 LI bnd       x53       0
 LI bnd       x54       0
 LI bnd       x55       0
 LI bnd       x56       0
 LI bnd       x57       0
 LI bnd       x58       0
 LI bnd       x59       0
 LI bnd       x60       0
 LI bnd       x61       0
 LI bnd       x62       0
 LI bnd       x63       0
 LI bnd       x64       0
 LI bnd       x65       0
 LI bnd       x66       0
 LI bnd       x67       0
 LI bnd       x68       0
 LI bnd       x69       0
 LI bnd       x70       0
ENDATA
